NAME : local_0
TYPE : ATSP
DIMENSION : 32
EDGE_WEIGHT_TYPE : EXPLICIT
EDGE_WEIGHT_FORMAT : FULL_MATRIX
EDGE_WEIGHT_SECTION
0 708 10000000 10000000 10000000 10000000 994 956 10000000 654 10000000 899 10000000 10000000 10000000 700 10000000 10000000 766 10000000 10000000 10000000 10000000 10000000 10000000 10000000 920 773 10000000 10000000 971 10000000 
0 0 10000000 10000000 10000000 10000000 393 273 656 10000000 10000000 255 10000000 10000000 10000000 10000000 10000000 866 10000000 994 10000000 10000000 10000000 10000000 10000000 956 10000000 10000000 873 10000000 10000000 10000000 
0 10000000 0 1078 10000000 10000000 10000000 10000000 10000000 10000000 10000000 10000000 10000000 752 10000000 10000000 10000000 10000000 10000000 10000000 635 10000000 10000000 10000000 10000000 10000000 10000000 10000000 10000000 697 10000000 10000000 
0 10000000 1040 0 10000000 996 10000000 10000000 10000000 10000000 10000000 10000000 10000000 10000000 10000000 10000000 121 10000000 10000000 10000000 497 10000000 789 10000000 584 10000000 10000000 10000000 10000000 10000000 10000000 10000000 
0 10000000 10000000 10000000 0 10000000 10000000 10000000 10000000 565 10000000 10000000 10000000 10000000 10000000 10000000 10000000 10000000 476 10000000 10000000 729 10000000 976 10000000 10000000 528 600 10000000 598 485 367 
0 10000000 10000000 996 10000000 0 872 902 517 10000000 811 10000000 310 10000000 732 10000000 908 450 10000000 239 10000000 1061 470 754 490 981 10000000 10000000 978 10000000 10000000 10000000 
0 393 10000000 10000000 10000000 872 0 166 477 10000000 10000000 490 10000000 10000000 10000000 10000000 10000000 744 10000000 784 10000000 10000000 668 10000000 888 592 975 10000000 539 10000000 10000000 10000000 
0 273 10000000 10000000 10000000 902 166 0 442 10000000 10000000 324 10000000 10000000 10000000 10000000 10000000 688 10000000 771 10000000 10000000 776 10000000 996 758 10000000 10000000 703 10000000 10000000 10000000 
0 674 10000000 10000000 10000000 517 477 442 0 10000000 820 550 755 10000000 10000000 10000000 10000000 290 10000000 353 10000000 10000000 573 10000000 760 868 10000000 10000000 821 10000000 10000000 10000000 
0 10000000 10000000 10000000 565 10000000 10000000 10000000 10000000 0 10000000 10000000 10000000 10000000 10000000 647 10000000 10000000 129 10000000 10000000 703 10000000 1020 10000000 10000000 459 273 1039 826 482 626 
0 10000000 10000000 10000000 10000000 811 10000000 10000000 820 10000000 0 10000000 733 10000000 663 10000000 10000000 537 10000000 636 10000000 10000000 10000000 10000000 10000000 10000000 10000000 10000000 10000000 10000000 10000000 10000000 
0 255 10000000 10000000 10000000 10000000 490 324 550 10000000 10000000 0 10000000 10000000 10000000 10000000 10000000 695 10000000 852 10000000 10000000 10000000 10000000 10000000 10000000 10000000 10000000 10000000 10000000 10000000 10000000 
0 10000000 10000000 10000000 10000000 310 10000000 10000000 755 10000000 733 10000000 0 10000000 442 10000000 992 590 10000000 422 10000000 761 743 487 710 10000000 10000000 1161 10000000 10000000 10000000 10000000 
0 10000000 752 10000000 10000000 10000000 10000000 10000000 10000000 10000000 10000000 10000000 10000000 0 10000000 10000000 10000000 10000000 10000000 10000000 1068 10000000 10000000 10000000 10000000 600 892 10000000 637 672 889 10000000 
0 10000000 10000000 10000000 10000000 732 10000000 10000000 10000000 10000000 663 10000000 442 10000000 0 992 10000000 823 10000000 747 10000000 624 10000000 460 10000000 10000000 10000000 918 10000000 10000000 10000000 994 
0 10000000 10000000 10000000 10000000 10000000 10000000 10000000 10000000 647 10000000 10000000 10000000 10000000 992 0 10000000 10000000 651 10000000 10000000 768 10000000 10000000 10000000 10000000 10000000 485 10000000 10000000 10000000 930 
0 10000000 10000000 121 10000000 908 10000000 10000000 10000000 10000000 10000000 10000000 992 10000000 10000000 10000000 0 10000000 10000000 10000000 603 10000000 754 10000000 535 10000000 10000000 10000000 10000000 10000000 10000000 10000000 
0 850 10000000 10000000 10000000 450 744 688 290 10000000 537 695 590 10000000 823 10000000 10000000 0 10000000 211 10000000 10000000 729 10000000 859 10000000 10000000 10000000 10000000 10000000 10000000 10000000 
0 10000000 10000000 10000000 476 10000000 10000000 10000000 10000000 129 10000000 10000000 10000000 10000000 10000000 651 10000000 10000000 0 10000000 10000000 594 10000000 907 10000000 10000000 498 199 10000000 828 509 498 
0 1015 10000000 10000000 10000000 239 784 771 353 10000000 636 852 422 10000000 747 10000000 10000000 211 10000000 0 10000000 10000000 586 893 678 10000000 10000000 10000000 1008 10000000 10000000 10000000 
0 10000000 635 497 10000000 10000000 10000000 10000000 10000000 10000000 10000000 10000000 10000000 1040 10000000 10000000 603 10000000 10000000 10000000 0 10000000 10000000 10000000 10000000 10000000 10000000 10000000 10000000 10000000 10000000 10000000 
0 10000000 10000000 10000000 729 1073 10000000 10000000 10000000 703 10000000 10000000 761 10000000 624 768 10000000 10000000 594 10000000 10000000 0 10000000 424 10000000 10000000 10000000 486 10000000 10000000 10000000 398 
0 10000000 10000000 789 10000000 470 668 776 573 10000000 10000000 10000000 743 10000000 10000000 10000000 754 729 10000000 586 10000000 10000000 0 10000000 226 545 1092 10000000 539 10000000 10000000 10000000 
0 10000000 10000000 10000000 976 754 10000000 10000000 10000000 1025 10000000 10000000 487 10000000 460 10000000 10000000 10000000 907 893 10000000 424 10000000 0 969 10000000 10000000 844 10000000 10000000 10000000 684 
0 10000000 10000000 584 10000000 490 888 996 760 10000000 10000000 10000000 710 10000000 10000000 10000000 535 859 10000000 678 10000000 10000000 226 969 0 678 10000000 10000000 683 10000000 10000000 10000000 
0 956 10000000 10000000 10000000 981 592 758 868 10000000 10000000 10000000 10000000 600 10000000 10000000 10000000 10000000 10000000 10000000 10000000 10000000 545 10000000 678 0 833 10000000 165 890 870 10000000 
0 10000000 10000000 10000000 528 10000000 975 10000000 10000000 459 10000000 10000000 10000000 892 10000000 10000000 10000000 10000000 498 10000000 10000000 10000000 1202 10000000 10000000 882 0 697 715 400 63 791 
0 10000000 10000000 10000000 600 10000000 10000000 10000000 10000000 273 10000000 10000000 1037 10000000 918 485 10000000 10000000 199 10000000 10000000 486 10000000 844 10000000 10000000 697 0 10000000 10000000 708 500 
0 873 10000000 10000000 10000000 1007 539 703 821 1046 10000000 10000000 10000000 637 10000000 10000000 10000000 10000000 10000000 1014 10000000 10000000 539 10000000 700 165 681 10000000 0 787 744 10000000 
0 10000000 697 10000000 598 10000000 10000000 10000000 10000000 826 10000000 10000000 10000000 672 10000000 10000000 10000000 10000000 828 10000000 10000000 10000000 10000000 10000000 10000000 890 400 10000000 787 0 354 939 
0 10000000 10000000 10000000 485 10000000 10000000 10000000 10000000 482 10000000 10000000 10000000 889 10000000 10000000 10000000 10000000 509 10000000 10000000 10000000 10000000 10000000 10000000 870 63 708 722 354 0 769 
0 10000000 10000000 10000000 10000000 10000000 10000000 10000000 10000000 10000000 10000000 10000000 10000000 10000000 10000000 10000000 10000000 10000000 10000000 10000000 10000000 10000000 10000000 10000000 10000000 10000000 10000000 10000000 10000000 10000000 10000000 0 
EOF